 vasp.5.3.3 18Dez12 (build Nov 13 2015 09:58:40) complex

 executed on             LinuxIFC date 2017.10.18  13:05:35

 INCAR:
 POTCAR:    PAW_PBE Cu_pv 06Sep2000
 POTCAR:    PAW_PBE Ge 05Jan2001
 POTCAR:    PAW_PBE S 17Jan2003

 POTCAR:    PAW_PBE Cu_pv 06Sep2000
   VRHFIN =Cu: d10 p1

   TITEL  = PAW_PBE Cu_pv 06Sep2000
   POMASS =   63.546; ZVAL   =   17.000    mass and valenz
   ENMAX  =  368.648; ENMIN  =  276.486 eV

 POTCAR:    PAW_PBE Ge 05Jan2001
   VRHFIN =Ge: s2p2

   TITEL  = PAW_PBE Ge 05Jan2001
   POMASS =   72.610; ZVAL   =    4.000    mass and valenz
   ENMAX  =  173.807; ENMIN  =  130.355 eV

 POTCAR:    PAW_PBE S 17Jan2003
   VRHFIN =S : s2p4

   TITEL  = PAW_PBE S 17Jan2003
   POMASS =   32.066; ZVAL   =    6.000    mass and valenz
   ENMAX  =  280.000; ENMIN  =  194.016 eV
   QCUT   =   -4.360; QGAM   =    8.721    optimization parameters

   Description
     l     E      TYP  RCUT    TYP  RCUT
     0   .000     23  1.900
     0   .000     23  1.900
     1   .000     23  1.900
     1   .000     23  1.900
     2   .000     23  1.900

  PAW_PBE Cu_pv 06Sep2000               :
  PAW_PBE Ge 05Jan2001                  :
  PAW_PBE S 17Jan2003                   :

 POSCAR: Cu Ge S
  positions in direct lattice
 exchange correlation table for  LEXCH =        8
   RHO(1)=    0.500       N(1)  =     2000
   RHO(2)=  100.500       N(2)  =     4000

 ion  position               nearest neighbor table
   1  0.618  0.121  0.120-   9 2.29  11 2.29  12 2.30   8 2.35
   2  0.121  0.618  0.620-  12 2.29   7 2.29   9 2.30  10 2.35
   3  0.963  0.790  0.119-  11 2.30  12 2.30   7 2.31   8 2.36
   4  0.790  0.963  0.619-   7 2.30   9 2.30  11 2.31  10 2.36
   5  0.440  0.266  0.599-   7 2.19   9 2.19  10 2.31   8 2.33
   6  0.267  0.440  0.099-  11 2.19  12 2.19   8 2.31  10 2.33
   7  0.079  0.912  0.497-   5 2.19   2 2.29   4 2.30   3 2.31
   8  0.571  0.412  0.980-   6 2.31   5 2.33   1 2.35   3 2.36
   9  0.737  0.250  0.495-   5 2.19   1 2.29   4 2.30   2 2.30
  10  0.412  0.571  0.480-   5 2.31   6 2.33   2 2.35   4 2.36
  11  0.912  0.079  0.997-   6 2.19   1 2.29   3 2.30   4 2.31
  12  0.250  0.737  0.995-   6 2.19   2 2.29   3 2.30   1 2.30

  Warning from LATTYP: Got some problem with cell dimensions!
  Tried to take original basis but could not verify dimensions!
  LATTYP: Found a base centered monoclinic cell.
 ALAT       =     6.4499010947
 B/A-ratio  =     1.7500516418
 C/A-ratio  =     1.9305142024
 COS(beta)  =    -0.4326083233

  Lattice vectors:

 A1 = (   3.2247960000,   5.6438300000,   0.0315720000)
 A2 = (   3.2247960000,  -5.6438300000,   0.0315720000)
 A3 = ( -10.7972380000,   0.0000000000,  -6.2018250000)

Analysis of symmetry for initial positions (statically):
 Subroutine PRICEL returns:
 Original cell was already a primitive cell.

 Routine SETGRP: Setting up the symmetry group for a
 base centered monoclinic supercell.

 Subroutine GETGRP returns: Found  1 space group operations
 (whereof  1 operations were pure point group operations)
 out of a pool of  4 trial point group operations.

The static configuration has the point symmetry C_1 .

Analysis of symmetry for dynamics (positions and initial velocities):
 Subroutine PRICEL returns:
 Original cell was already a primitive cell.

 Routine SETGRP: Setting up the symmetry group for a
 base centered monoclinic supercell.

 Subroutine GETGRP returns: Found  1 space group operations
 (whereof  1 operations were pure point group operations)
 out of a pool of  4 trial point group operations.

The dynamic configuration has the point symmetry C_1 .

 irot  :   1
 isymop:   1   0   0
           0   1   0
           0   0   1

 gtrans:     0.0000000     0.0000000     0.0000000

 ptrans:     0.0000000     0.0000000     0.0000000
 rotmap:
 (   1->   1)  (   2->   2)  (   3->   3)  (   4->   4)  (   5->   5)
 (   6->   6)  (   7->   7)  (   8->   8)  (   9->   9)  (  10->  10)
 (  11->  11)  (  12->  12)

 KPOINTS: pymatgen 4.7.6+ generated KPOINTS with g

Automatic generation of k-mesh.
Space group operators:
 irot       det(A)        alpha          n_x          n_y          n_z        tau_x        tau_y        tau_z
    1     1.000000     0.000000     1.000000     0.000000     0.000000     0.000000     0.000000     0.000000

 Subroutine IBZKPT returns following result:

 Found     42 irreducible k-points:

 Following reciprocal coordinates:
            Coordinates               Weight
  0.000000  0.000000  0.000000      1.000000
  0.250000  0.000000  0.000000      2.000000
  0.500000  0.000000  0.000000      1.000000
  0.000000  0.250000  0.000000      2.000000
  0.250000  0.250000  0.000000      2.000000
  0.500000  0.250000 -0.000000      2.000000
 -0.250000  0.250000  0.000000      2.000000
  0.000000  0.500000  0.000000      1.000000
  0.250000  0.500000 -0.000000      2.000000
  0.500000  0.500000  0.000000      1.000000
 -0.000000 -0.000000  0.200000      2.000000
  0.250000  0.000000  0.200000      2.000000
  0.500000  0.000000  0.200000      2.000000
 -0.250000 -0.000000  0.200000      2.000000
  0.000000  0.250000  0.200000      2.000000
  0.250000  0.250000  0.200000      2.000000
  0.500000  0.250000  0.200000      2.000000
 -0.250000  0.250000  0.200000      2.000000
  0.000000  0.500000  0.200000      2.000000
  0.250000  0.500000  0.200000      2.000000
  0.500000  0.500000  0.200000      2.000000
 -0.250000  0.500000  0.200000      2.000000
 -0.000000 -0.250000  0.200000      2.000000
  0.250000 -0.250000  0.200000      2.000000
  0.500000 -0.250000  0.200000      2.000000
 -0.250000 -0.250000  0.200000      2.000000
 -0.000000 -0.000000  0.400000      2.000000
  0.250000  0.000000  0.400000      2.000000
  0.500000  0.000000  0.400000      2.000000
 -0.250000  0.000000  0.400000      2.000000
  0.000000  0.250000  0.400000      2.000000
  0.250000  0.250000  0.400000      2.000000
  0.500000  0.250000  0.400000      2.000000
 -0.250000  0.250000  0.400000      2.000000
  0.000000  0.500000  0.400000      2.000000
  0.250000  0.500000  0.400000      2.000000
  0.500000  0.500000  0.400000      2.000000
 -0.250000  0.500000  0.400000      2.000000
  0.000000 -0.250000  0.400000      2.000000
  0.250000 -0.250000  0.400000      2.000000
  0.500000 -0.250000  0.400000      2.000000
 -0.250000 -0.250000  0.400000      2.000000

 Following cartesian coordinates:
            Coordinates               Weight
  0.000000  0.000000  0.000000      1.000000
  0.038631 -0.022148  0.013365      2.000000
  0.077263 -0.044296  0.026730      1.000000
  0.038631  0.022148  0.013365      2.000000
  0.077263  0.000000  0.026730      2.000000
  0.115894 -0.022148  0.040096      2.000000
  0.000000  0.044296  0.000000      2.000000
  0.077263  0.044296  0.026730      1.000000
  0.115894  0.022148  0.040096      2.000000
  0.154525  0.000000  0.053461      1.000000
 -0.000321  0.000000  0.032808      2.000000
  0.038310 -0.022148  0.046173      2.000000
  0.076941 -0.044296  0.059538      2.000000
 -0.038952  0.022148  0.019443      2.000000
  0.038310  0.022148  0.046173      2.000000
  0.076941  0.000000  0.059538      2.000000
  0.115573 -0.022148  0.072903      2.000000
 -0.000321  0.044296  0.032808      2.000000
  0.076941  0.044296  0.059538      2.000000
  0.115573  0.022148  0.072903      2.000000
  0.154204  0.000000  0.086269      2.000000
  0.038310  0.066444  0.046173      2.000000
 -0.038952 -0.022148  0.019443      2.000000
 -0.000321 -0.044296  0.032808      2.000000
  0.038310 -0.066444  0.046173      2.000000
 -0.077584  0.000000  0.006077      2.000000
 -0.000642  0.000000  0.065616      2.000000
  0.037989 -0.022148  0.078981      2.000000
  0.076620 -0.044296  0.092346      2.000000
 -0.039274  0.022148  0.052250      2.000000
  0.037989  0.022148  0.078981      2.000000
  0.076620  0.000000  0.092346      2.000000
  0.115251 -0.022148  0.105711      2.000000
 -0.000642  0.044296  0.065616      2.000000
  0.076620  0.044296  0.092346      2.000000
  0.115251  0.022148  0.105711      2.000000
  0.153883  0.000000  0.119076      2.000000
  0.037989  0.066444  0.078981      2.000000
 -0.039274 -0.022148  0.052250      2.000000
 -0.000642 -0.044296  0.065616      2.000000
  0.037989 -0.066444  0.078981      2.000000
 -0.077905  0.000000  0.038885      2.000000

 Subroutine IBZKPT_HF returns following result:

 Found     80 k-points in 1st BZ
 the following     80 k-points will be used (e.g. in the exchange kernel)
 Following reciprocal coordinates:   # in IRBZ
  0.000000  0.000000  0.000000       1 t-inv F
  0.250000  0.000000  0.000000       2 t-inv F
  0.500000  0.000000  0.000000       3 t-inv F
  0.000000  0.250000  0.000000       4 t-inv F
  0.250000  0.250000  0.000000       5 t-inv F
  0.500000  0.250000 -0.000000       6 t-inv F
 -0.250000  0.250000  0.000000       7 t-inv F
  0.000000  0.500000  0.000000       8 t-inv F
  0.250000  0.500000 -0.000000       9 t-inv F
  0.500000  0.500000  0.000000      10 t-inv F
 -0.000000 -0.000000  0.200000      11 t-inv F
  0.250000  0.000000  0.200000      12 t-inv F
  0.500000  0.000000  0.200000      13 t-inv F
 -0.250000 -0.000000  0.200000      14 t-inv F
  0.000000  0.250000  0.200000      15 t-inv F
  0.250000  0.250000  0.200000      16 t-inv F
  0.500000  0.250000  0.200000      17 t-inv F
 -0.250000  0.250000  0.200000      18 t-inv F
  0.000000  0.500000  0.200000      19 t-inv F
  0.250000  0.500000  0.200000      20 t-inv F
  0.500000  0.500000  0.200000      21 t-inv F
 -0.250000  0.500000  0.200000      22 t-inv F
 -0.000000 -0.250000  0.200000      23 t-inv F
  0.250000 -0.250000  0.200000      24 t-inv F
  0.500000 -0.250000  0.200000      25 t-inv F
 -0.250000 -0.250000  0.200000      26 t-inv F
 -0.000000 -0.000000  0.400000      27 t-inv F
  0.250000  0.000000  0.400000      28 t-inv F
  0.500000  0.000000  0.400000      29 t-inv F
 -0.250000  0.000000  0.400000      30 t-inv F
  0.000000  0.250000  0.400000      31 t-inv F
  0.250000  0.250000  0.400000      32 t-inv F
  0.500000  0.250000  0.400000      33 t-inv F
 -0.250000  0.250000  0.400000      34 t-inv F
  0.000000  0.500000  0.400000      35 t-inv F
  0.250000  0.500000  0.400000      36 t-inv F
  0.500000  0.500000  0.400000      37 t-inv F
 -0.250000  0.500000  0.400000      38 t-inv F
  0.000000 -0.250000  0.400000      39 t-inv F
  0.250000 -0.250000  0.400000      40 t-inv F
  0.500000 -0.250000  0.400000      41 t-inv F
 -0.250000 -0.250000  0.400000      42 t-inv F
 -0.250000 -0.000000 -0.000000       2 t-inv T
 -0.000000 -0.250000 -0.000000       4 t-inv T
 -0.250000 -0.250000  0.000000       5 t-inv T
 -0.500000 -0.250000  0.000000       6 t-inv T
  0.250000 -0.250000  0.000000       7 t-inv T
 -0.250000 -0.500000  0.000000       9 t-inv T
  0.000000  0.000000 -0.200000      11 t-inv T
 -0.250000 -0.000000 -0.200000      12 t-inv T
 -0.500000 -0.000000 -0.200000      13 t-inv T
  0.250000  0.000000 -0.200000      14 t-inv T
 -0.000000 -0.250000 -0.200000      15 t-inv T
 -0.250000 -0.250000 -0.200000      16 t-inv T
 -0.500000 -0.250000 -0.200000      17 t-inv T
  0.250000 -0.250000 -0.200000      18 t-inv T
 -0.000000 -0.500000 -0.200000      19 t-inv T
[...]
   0.07949800  0.91167500  0.49736300
   0.57140300  0.41236400  0.98018400
   0.73711100  0.25006200  0.49504900
   0.41236400  0.57140300  0.48018400
   0.91167500  0.07949800  0.99736300
   0.25006200  0.73711100  0.99504900

 position of ions in cartesian coordinates  (Angst):
   2.13385236 -2.80651863  0.74957826
   1.08287936  2.80651863  3.78734676
   5.40422860 -0.97432259  0.77720730
   4.35325560  0.97432259  3.81497580
   1.01584721 -0.98196662  3.66180546
   2.07178125  0.97328413  0.62408553
   2.15090056  4.69666552  3.05304062
   1.11215405 -0.89758908  5.98620365
   2.14286528 -2.74882176  3.03885554
   2.16312705  0.89758908  2.94843515
   1.09992756 -4.69666552  6.09080912
   1.09189228  2.74882176  6.07662404

 k-point  1 :   0.0000 0.0000 0.0000  plane waves:    4051
 k-point  2 :   0.2500 0.0000 0.0000  plane waves:    4032
 k-point  3 :   0.5000 0.0000 0.0000  plane waves:    4030
 k-point  4 :   0.0000 0.2500 0.0000  plane waves:    4032
 k-point  5 :   0.2500 0.2500 0.0000  plane waves:    4038
 k-point  6 :   0.5000 0.2500-0.0000  plane waves:    4037
 k-point  7 :  -0.2500 0.2500 0.0000  plane waves:    4042
 k-point  8 :   0.0000 0.5000 0.0000  plane waves:    4030
 k-point  9 :   0.2500 0.5000-0.0000  plane waves:    4037
 k-point 10 :   0.5000 0.5000 0.0000  plane waves:    4026
 k-point 11 :  -0.0000-0.0000 0.2000  plane waves:    4046
 k-point 12 :   0.2500 0.0000 0.2000  plane waves:    4034
 k-point 13 :   0.5000 0.0000 0.2000  plane waves:    4025
 k-point 14 :  -0.2500-0.0000 0.2000  plane waves:    4044
 k-point 15 :   0.0000 0.2500 0.2000  plane waves:    4034
 k-point 16 :   0.2500 0.2500 0.2000  plane waves:    4017
 k-point 17 :   0.5000 0.2500 0.2000  plane waves:    4039
 k-point 18 :  -0.2500 0.2500 0.2000  plane waves:    4042
 k-point 19 :   0.0000 0.5000 0.2000  plane waves:    4025
 k-point 20 :   0.2500 0.5000 0.2000  plane waves:    4039
 k-point 21 :   0.5000 0.5000 0.2000  plane waves:    4030
 k-point 22 :  -0.2500 0.5000 0.2000  plane waves:    4030
 k-point 23 :  -0.0000-0.2500 0.2000  plane waves:    4044
 k-point 24 :   0.2500-0.2500 0.2000  plane waves:    4042
 k-point 25 :   0.5000-0.2500 0.2000  plane waves:    4030
 k-point 26 :  -0.2500-0.2500 0.2000  plane waves:    4020
 k-point 27 :  -0.0000-0.0000 0.4000  plane waves:    4027
 k-point 28 :   0.2500 0.0000 0.4000  plane waves:    4034
 k-point 29 :   0.5000 0.0000 0.4000  plane waves:    4013
 k-point 30 :  -0.2500 0.0000 0.4000  plane waves:    4042
 k-point 31 :   0.0000 0.2500 0.4000  plane waves:    4034
 k-point 32 :   0.2500 0.2500 0.4000  plane waves:    4009
 k-point 33 :   0.5000 0.2500 0.4000  plane waves:    4026
 k-point 34 :  -0.2500 0.2500 0.4000  plane waves:    4027
 k-point 35 :   0.0000 0.5000 0.4000  plane waves:    4013
 k-point 36 :   0.2500 0.5000 0.4000  plane waves:    4026
 k-point 37 :   0.5000 0.5000 0.4000  plane waves:    4037
 k-point 38 :  -0.2500 0.5000 0.4000  plane waves:    4022
 k-point 39 :   0.0000-0.2500 0.4000  plane waves:    4042
 k-point 40 :   0.2500-0.2500 0.4000  plane waves:    4027
 k-point 41 :   0.5000-0.2500 0.4000  plane waves:    4022
 k-point 42 :  -0.2500-0.2500 0.4000  plane waves:    4015

 maximum and minimum number of plane-waves per node :      4051     4009

 maximum number of plane-waves:      4051
 maximum index in each direction:
   IXMAX=   10   IYMAX=   10   IZMAX=   10
   IXMIN=  -11   IYMIN=  -11   IZMIN=  -10

 WARNING: aliasing errors must be expected set NGX to  44 to avoid them
 WARNING: aliasing errors must be expected set NGY to  44 to avoid them
 WARNING: aliasing errors must be expected set NGZ to  42 to avoid them
 aliasing errors are usually negligible using standard VASP settings
 and one can safely disregard these warnings

 serial   3D FFT for wavefunctions
 parallel 3D FFT for charge:
    minimum data exchange during FFTs selected (reduces bandwidth)

 FFT grid for exact exchange (Hartree Fock)
  NGX = 24; NGY = 24; NGZ = 24

 Radii for the augmentation spheres in the non-local exchange
 for species   1 augmentation radius   1.120 (default was   0.830)
       energy cutoff for augmentation   1600.0
 for species   2 augmentation radius   1.570 (default was   1.163)
       energy cutoff for augmentation   1600.0
 for species   3 augmentation radius   1.034 (default was   0.970)
       energy cutoff for augmentation   1600.0

 Broyden mixing: mesh for mixing (old mesh)
   NGX = 21   NGY = 21   NGZ = 21
  (NGX  = 64   NGY  = 64   NGZ  = 64)
  gives a total of   9261 points

 charge density for first step will be calculated from the start-wavefunctions

 Maximum index for augmentation-charges          484 (set IRDMAX)

 initial charge from wavefunction
 First call to EWALD:  gamma=   0.293
 Maximum number of real-space cells 3x 3x 3
 Maximum number of reciprocal cells 3x 3x 3

 FEWALD executed in parallel

----------------------------------------- Iteration    1(   1)  ---------------------------------------

 Broyden mixing:
  rms(total) = 0.27315E-01    rms(broyden)= 0.27299E-01
  rms(prec ) = 0.42906E-01
  weight for this iteration     100.00

 eigenvalues of (default mixing * dielectric matrix)
  average eigenvalue GAMMA=   1.7330
  1.0168  2.4491

 eigenvalue-minimisations  :     0
 total energy-change (2. order) : 0.7552203E+02  (-0.2131880E+03)
 number of electron     112.0001480 magnetization
 augmentation part       38.9111078 magnetization

 Free energy of the ion-electron system (eV)
  alpha Z        PSCENC =       339.31929130
  Ewald energy   TEWEN  =     -9064.32840908
  -1/2 Hartree   DENC   =     -8067.45079227
  -exchange  EXHF       =       327.44962167
  -V(xc)+E(xc)   XCENC  =       369.90337925
  PAW double counting   =     16900.55915304   -17393.37443406
  entropy T*S    EENTRO =        -0.00144818
  eigenvalues    EBANDS =     -1657.53946660
  atomic energy  EATOM  =     18320.98302006
  free energy    TOTEN  =        75.52202659 eV

  energy without entropy =       75.52347477  energy(sigma->0) =       75.52250931

[...]

 eigenvalue-minimisations  :     0
 total energy-change (2. order) :-0.8390391E+02  (-0.1468871E+03)
 number of electron     112.0001385 magnetization
 augmentation part       35.4572141 magnetization

[...]

----------------------------------------- Iteration    1(  21)  ---------------------------------------

 Broyden mixing:
  rms(total) = 0.12354E-03    rms(broyden)= 0.12353E-03
  rms(prec ) = 0.12656E-03
  weight for this iteration     100.00

 eigenvalues of (default mixing * dielectric matrix)
  average eigenvalue GAMMA=   2.4050
  2.4050

 eigenvalue-minimisations  :     0
 total energy-change (2. order) :-0.7370203E-05  (-0.6999169E-05)
 number of electron     112.0001447 magnetization
 augmentation part       37.8184502 magnetization

 Free energy of the ion-electron system (eV)
  alpha Z        PSCENC =       339.31929130
  Ewald energy   TEWEN  =     -9064.32840908
  -1/2 Hartree   DENC   =     -8149.73541773
  -exchange  EXHF       =       340.06870030
  -V(xc)+E(xc)   XCENC  =       372.07002776
  PAW double counting   =     15922.16494804   -16407.35203177
  entropy T*S    EENTRO =         0.00055782
  eigenvalues    EBANDS =     -1742.78572875
  atomic energy  EATOM  =     18320.98302006
  free energy    TOTEN  =       -69.59504264 eV

  energy without entropy =      -69.59560046  energy(sigma->0) =      -69.59522858

  average scaling for gradient   0.9420

 average (electrostatic) potential at core
  the test charge radii are     0.8297  1.1631  0.9698
  (the norm of the test charge is              1.0000)
       1 -70.5439       2 -70.5435       3 -70.5163       4 -70.5153       5 -30.2787
       6 -30.2746       7 -83.6557       8 -84.4886       9 -83.6283      10 -84.4754
      11 -83.6456      12 -83.6178

 E-fermi :   4.2187     XC(G=0):  -8.2356     alpha+bet :-10.0998

 k-point   1 :       0.0000    0.0000    0.0000
  band No.  band energies     occupation
      1     -68.6460      2.00000
      2     -68.6456      2.00000
      3     -68.6349      2.00000
      4     -68.6335      2.00000
      5     -68.6147      2.00000
      6     -68.6140      2.00000
      7     -68.5968      2.00000
      8     -68.5966      2.00000
      9     -68.5792      2.00000
     10     -68.5781      2.00000
     11     -68.5620      2.00000
     12     -68.5619      2.00000
     13     -12.7146      2.00000
     14     -11.1332      2.00000
     15     -10.9100      2.00000
     16     -10.6014      2.00000
     17     -10.2630      2.00000
     18     -10.2392      2.00000
     19      -5.9744      2.00000
     20      -4.9854      2.00000
     21      -2.7581      2.00000
     22      -2.2026      2.00000
     23      -2.0707      2.00000
     24      -1.9239      2.00000
     25      -1.5764      2.00000
     26      -0.9852      2.00000
     27      -0.9515      2.00000
     28      -0.6858      2.00000
     29      -0.4008      2.00000
     30      -0.2757      2.00000
     31      -0.2625      2.00000
     32      -0.2353      2.00000
     33      -0.1892      2.00000
     34      -0.1549      2.00000
     35      -0.0451      2.00000
     36       0.0307      2.00000
     37       1.3494      2.00000
     38       1.3620      2.00000
     39       1.4127      2.00000
     40       1.4559      2.00000
     41       1.4704      2.00000
     42       1.4726      2.00000
     43       1.5190      2.00000
     44       1.5317      2.00000
     45       1.5741      2.00000
     46       1.7109      2.00000
     47       1.8909      2.00000
     48       1.9275      2.00000
     49       2.0596      2.00000
     50       2.6484      2.00000
     51       2.7264      2.00000
     52       3.0921      2.00000
     53       3.2166      2.00000
     54       4.0055      2.00999
     55       4.0348      2.02548
     56       4.1703      1.72823
     57       5.5407     -0.00000
     58       6.3596     -0.00000
     59       7.6268      0.00000
     60       7.9913      0.00000
[...]
     66      10.4174      0.00000
     67      10.5789      0.00000
     68      10.6998      0.00000
     69      10.7172      0.00000
     70      11.2819      0.00000
     71      11.7090      0.00000
     72      12.3909      0.00000
     73      12.4525      0.00000
     74      12.7289      0.00000
     75      13.3177      0.00000
     76      13.3839      0.00000
     77      13.8365      0.00000
     78      13.8826      0.00000
     79      14.1439      0.00000
     80      14.1822      0.00000

[...]

 k-point  42 :      -0.2500   -0.2500    0.4000
  band No.  band energies     occupation
      1     -68.6456      2.00000
      2     -68.6457      2.00000
      3     -68.6345      2.00000
      4     -68.6334      2.00000
      5     -68.6144      2.00000
      6     -68.6140      2.00000
      7     -68.5967      2.00000
      8     -68.5964      2.00000
      9     -68.5789      2.00000
     10     -68.5781      2.00000
     11     -68.5620      2.00000
     12     -68.5617      2.00000
     13     -12.1720      2.00000
     14     -11.6989      2.00000
     15     -10.7213      2.00000
     16     -10.6922      2.00000
     17     -10.5936      2.00000
     18     -10.3991      2.00000
     19      -5.4394      2.00000
     20      -5.0690      2.00000
     21      -2.5076      2.00000
     22      -2.3805      2.00000
     23      -1.9635      2.00000
     24      -1.3650      2.00000
     25      -1.3313      2.00000
     26      -1.0552      2.00000
     27      -0.8309      2.00000
     28      -0.7707      2.00000
     29      -0.4200      2.00000
     30      -0.3339      2.00000
     31      -0.2712      2.00000
     32      -0.2103      2.00000
     33      -0.1470      2.00000
     34      -0.1406      2.00000
     35      -0.0141      2.00000
     36       0.0283      2.00000
     37       1.1724      2.00000
     38       1.3702      2.00000
     39       1.3965      2.00000
     40       1.4522      2.00000
     41       1.4535      2.00000
     42       1.4982      2.00000
     43       1.5164      2.00000
     44       1.5490      2.00000
     45       1.7423      2.00000
     46       1.8208      2.00000
     47       1.9735      2.00000
     48       2.2268      2.00000
     49       2.3988      2.00000
     50       2.6118      2.00000
     51       2.6546      2.00000
     52       2.9134      2.00000
     53       3.0665      2.00000
     54       3.1159      2.00000
     55       3.2846      2.00000
     56       3.5794      2.00000
     57       6.2914     -0.00000
     58       6.3848     -0.00000
     59       7.3567      0.00000
     60       7.5209      0.00000
[...]
     66       9.9534      0.00000
     67      10.5248      0.00000
     68      10.9916      0.00000
     69      11.4228      0.00000
     70      11.5680      0.00000
     71      12.0214      0.00000
     72      12.2831      0.00000
     73      12.4284      0.00000
     74      12.4738      0.00000
     75      13.0336      0.00000
     76      13.1520      0.00000
     77      14.1406      0.00000
     78      14.4433      0.00000
     79      15.1631      0.00000
     80      15.8691      0.00000

 soft charge-density along one line, spin component           1
         0         1         2         3         4         5         6         7         8         9
 total charge-density along one line

------------------------ aborting loop because EDIFF is reached ----------------------------------------

 VOLUME and BASIS-vectors are now :
  energy-cutoff  :      400.00
  volume of cell :      221.90
      direct lattice vectors                 reciprocal lattice vectors
     3.224796000 -5.643830000  0.031572000     0.154525165 -0.088592321  0.053460880
     3.224796000  5.643830000  0.031572000     0.154525165  0.088592321  0.053460880
    -2.101946000  0.000000000  6.075537000    -0.001606004  0.000000000  0.164038877

  length of vectors
     6.500240234  6.500240234  6.428866683     0.185969598  0.185969598  0.164046738

 FORCES acting on ions:
    Electron-Ion                     Ewald-Force                    Non-Local-Force
   -.145E+02 -.971E+02 0.114E+02   0.133E+02 0.947E+02 -.981E+01   0.102E+01 0.210E+01 -.137E+01
   -.141E+02 0.975E+02 0.115E+02   0.130E+02 -.952E+02 -.988E+01   0.981E+00 -.205E+01 -.143E+01
   0.256E+02 -.171E+02 0.454E+01   -.223E+02 0.169E+02 -.332E+01   -.285E+01 0.165E+00 -.107E+01
   0.255E+02 0.173E+02 0.444E+01   -.223E+02 -.171E+02 -.315E+01   -.278E+01 -.178E+00 -.113E+01
   -.116E+02 -.325E+02 -.113E+02   0.109E+02 0.312E+02 0.102E+02   0.730E+00 0.142E+01 0.115E+01
   -.110E+02 0.316E+02 -.112E+02   0.103E+02 -.302E+02 0.100E+02   0.683E+00 -.134E+01 0.112E+01
   -.135E+03 -.101E+02 -.490E+02   0.132E+03 0.102E+02 0.482E+02   0.274E+01 -.492E-01 0.721E+00
   0.702E+02 -.126E+03 0.962E+02   -.684E+02 0.124E+03 -.942E+02   -.158E+01 0.227E+01 -.188E+01
   0.662E+02 -.132E+03 -.496E+02   -.647E+02 0.130E+03 0.487E+02   -.135E+01 0.213E+01 0.867E+00
   0.705E+02 0.126E+03 0.960E+02   -.688E+02 -.124E+03 -.939E+02   -.157E+01 -.231E+01 -.189E+01
   -.135E+03 0.994E+01 -.492E+02   0.132E+03 -.997E+01 0.484E+02   0.278E+01 0.312E-01 0.730E+00
   0.666E+02 0.133E+03 -.497E+02   -.651E+02 -.130E+03 0.488E+02   -.135E+01 -.217E+01 0.869E+00
   0.279E+01 -.142E-01 0.374E+01   -.284E-13 0.000E+00 -.568E-13   -.254E+01 0.421E-02 -.331E+01

 POSITION                                       TOTAL-FORCE (eV/Angst)
      2.13385     -2.80652      0.74958        -0.002745     -0.000989     -0.002419
      1.08288      2.80652      3.78735        -0.000522     -0.004048      0.000471
      5.40423     -0.97432      0.77721         0.002641     -0.001789     -0.003059
      4.35326      0.97432      3.81498        -0.002965     -0.000966      0.001364
      1.01585     -0.98197      3.66181         0.069890      0.122937      0.017669
      2.07178      0.97328      0.62409         0.001903     -0.006903      0.020990
      2.15090      4.69667      3.05304        -0.048311     -0.003594     -0.016348
      1.11215     -0.89759      5.98620        -0.003717     -0.014419     -0.002238
      2.14287     -2.74882      3.03886         0.018079     -0.042490     -0.013472
      2.16313      0.89759      2.94844        -0.033419     -0.046762      0.005131
      1.09993     -4.69667      6.09081         0.000280     -0.001063     -0.003936
      1.09189      2.74882      6.07662        -0.001115      0.000085     -0.004153
    total drift:                               -0.058956     -0.001076     -0.053983

  FREE ENERGIE OF THE ION-ELECTRON SYSTEM (eV)
  free  energy   TOTEN  =       -69.59504264 eV

  energy  without entropy=      -69.59560046  energy(sigma->0) =      -69.59522858

 writing wavefunctions